PROBLEM NAME: eil51_n8
KNAPSACK DATA TYPE: uncorrelated
DIMENSION: 8
NUMBER OF ITEMS: 35
CAPACITY OF KNAPSACK: 1512
MIN SPEED: 0.1
MAX SPEED: 1
RENTING RATIO: 13.56
EDGE_WEIGHT_TYPE: CEIL_2D
NODE_COORD_SECTION	(INDEX, X, Y):
1	52	64
2	57	58
3	16	57
4	27	68
5	58	48
6	10	17
7	39	10
8	48	28
ITEMS SECTION	(INDEX, PROFIT, WEIGHT, ASSIGNED NODE NUMBER):
1	997	199	4
2	994	367	4
3	992	421	4
4	908	97	4
5	893	984	4
6	874	138	3
7	815	845	3
8	794	995	3
9	791	9	3
10	766	882	3
11	720	856	6
12	707	242	6
13	700	72	6
14	667	122	6
15	649	322	6
16	633	299	7
17	617	874	7
18	598	94	7
19	544	574	7
20	539	719	7
21	506	326	8
22	457	43	8
23	446	955	8
24	428	682	8
25	422	252	8
26	419	145	5
27	416	248	5
28	359	901	5
29	334	715	5
30	237	795	5
31	196	529	2
32	131	433	2
33	116	277	2
34	94	485	2
35	7	738	2
